10J3M/DAT/10J3MULX-15.dat
10 3
7.9901 2.8267
16.6446 4.0798
24.3735 4.937
15.7882 3.9734
15.3619 3.9194
27.1547 5.211
43.6777 6.6089
28.8684 5.3729
35.4298 5.9523
22.2169 4.7135
15.865