10J3M/SOL/10J3MULX-15.sol
solution status: optimal solution found
objective value:                              74.9615
x#1#3                                               1 	(obj:0)
x#2#1                                               1 	(obj:0)
x#3#1                                               1 	(obj:0)
x#4#1                                               1 	(obj:0)
x#5#1                             0.00567557372568564 	(obj:0)
x#5#2                               0.994324426274314 	(obj:0)
x#6#2                              0.0786121049393123 	(obj:0)
x#6#3                               0.921387895060688 	(obj:0)
x#7#1                               0.365776894707402 	(obj:0)
x#7#2                               0.634223105292598 	(obj:0)
x#8#2                               0.660418753685733 	(obj:0)
x#8#3                               0.339581246314267 	(obj:0)
x#9#3                                               1 	(obj:0)
x#10#2                                              1 	(obj:0)
z                                             74.9615 	(obj:1)
